Solver command line: ['C:\\gurobi1002\\win64\\bin\\gurobi.bat']

Set parameter Username
Academic license - for non-commercial use only - expires 2024-08-20
Read LP format model from file C:\Users\mhafeman\AppData\Local\Temp\tmp3yif8h1w.pyomo.lp
Reading time = 4.49 seconds
objective: 992593 rows, 931103 columns, 2433154 nonzeros
Set parameter TimeLimit to value 1800
Set parameter MIPGap to value 0.01
Gurobi Optimizer version 10.0.2 build v10.0.2rc0 (win64)

CPU model: AMD Ryzen 7 3800X 8-Core Processor, instruction set [SSE2|AVX|AVX2]
Thread count: 8 physical cores, 16 logical processors, using up to 16 threads

Optimize a model with 992593 rows, 931103 columns and 2433154 nonzeros
Model fingerprint: 0xec627a20
Model has 17567 quadratic constraints
Variable types: 790560 continuous, 140543 integer (122976 binary)
Coefficient statistics:
  Matrix range     [1e-04, 3e+02]
  QMatrix range    [1e+00, 3e+00]
  QLMatrix range   [1e+00, 1e+00]
  Objective range  [1e-02, 4e+02]
  Bounds range     [1e+00, 3e+00]
  RHS range        [1e-03, 1e+04]
Presolve removed 808130 rows and 737857 columns (presolve time = 9s) ...
Presolve removed 790564 rows and 729074 columns
Presolve time: 8.87s
Presolved: 237165 rows, 210813 columns, 641226 nonzeros
Variable types: 122974 continuous, 87839 integer (87839 binary)
Deterministic concurrent LP optimizer: primal simplex, dual simplex, and barrier
Showing barrier log only...

Root barrier log...

Ordering time: 0.02s

Barrier statistics:
 AA' NZ     : 2.372e+05
 Factor NZ  : 6.370e+05 (roughly 80 MB of memory)
 Factor Ops : 4.619e+06 (less than 1 second per iteration)
 Threads    : 5

                  Objective                Residual
Iter       Primal          Dual         Primal    Dual     Compl     Time
   0   4.32347961e+08 -1.05707542e+10  3.72e+01 8.35e+02  1.03e+05    10s
   1   5.94781808e+07 -2.16200292e+09  6.06e-02 5.46e-12  9.22e+03    10s
   2   4.17569896e+07 -1.88982916e+08  7.05e-05 3.64e-12  9.50e+02    11s
   3   1.03140153e+07 -6.64746619e+07  6.60e-06 1.46e-12  3.16e+02    11s
   4   1.67406083e+06 -3.12351328e+07  2.96e-06 1.07e+00  1.35e+02    11s
   5  -1.51931560e+06 -2.15152298e+07  1.90e-06 5.95e-01  8.22e+01    11s

Barrier performed 5 iterations in 10.75 seconds (7.54 work units)
Barrier solve interrupted - model solved by another algorithm

Concurrent spin time: 0.14s (can be avoided by choosing Method=3)

Solved with dual simplex

Root simplex log...

Iteration    Objective       Primal Inf.    Dual Inf.      Time
   19938   -8.2522665e+06   0.000000e+00   0.000000e+00     11s

Use crossover to convert LP symmetric solution to basic solution...

Root crossover log...

   13114 DPushes remaining with DInf 0.0000000e+00                11s
       0 DPushes remaining with DInf 0.0000000e+00                11s

    3094 PPushes remaining with PInf 0.0000000e+00                11s
       0 PPushes remaining with PInf 0.0000000e+00                11s

  Push phase complete: Pinf 0.0000000e+00, Dinf 2.9159231e-10     11s


Root simplex log...

Iteration    Objective       Primal Inf.    Dual Inf.      Time
   36149   -8.2522665e+06   0.000000e+00   0.000000e+00     11s
   36149   -8.2522665e+06   0.000000e+00   0.000000e+00     11s

Root relaxation: objective -8.252267e+06, 36149 iterations, 1.61 seconds (1.31 work units)

    Nodes    |    Current Node    |     Objective Bounds      |     Work
 Expl Unexpl |  Obj  Depth IntInf | Incumbent    BestBd   Gap | It/Node Time

     0     0 -8252266.5    0  804          - -8252266.5      -     -   15s
H    0     0                    -7790844.879 -8252266.5  5.92%     -   16s
H    0     0                    -7795912.286 -8252266.5  5.85%     -   17s
     0     0 -8248612.1    0 1136 -7795912.3 -8248612.1  5.81%     -   20s
H    0     0                    -8019027.314 -8248612.1  2.86%     -   22s
     0     0 -8246048.1    0 1211 -8019027.3 -8246048.1  2.83%     -   23s
     0     0 -8246048.1    0 1212 -8019027.3 -8246048.1  2.83%     -   23s
     0     0 -8236392.2    0 1020 -8019027.3 -8236392.2  2.71%     -   25s
H    0     0                    -8042272.839 -8236392.2  2.41%     -   26s
H    0     0                    -8047685.318 -8236392.2  2.34%     -   27s
     0     0 -8234697.3    0  981 -8047685.3 -8234697.3  2.32%     -   27s
     0     0 -8234694.0    0  990 -8047685.3 -8234694.0  2.32%     -   27s
     0     0 -8229433.8    0  919 -8047685.3 -8229433.8  2.26%     -   31s
H    0     0                    -8122408.619 -8229433.8  1.32%     -   34s
     0     0 -8228524.1    0  908 -8122408.6 -8228524.1  1.31%     -   34s
     0     0 -8228335.3    0  922 -8122408.6 -8228335.3  1.30%     -   35s
     0     0 -8228334.0    0  925 -8122408.6 -8228334.0  1.30%     -   35s
     0     0 -8227414.1    0  953 -8122408.6 -8227414.1  1.29%     -   38s
H    0     0                    -8126094.367 -8227414.1  1.25%     -   40s
     0     0 -8226973.9    0  941 -8126094.4 -8226973.9  1.24%     -   40s
     0     0 -8226912.5    0  944 -8126094.4 -8226912.5  1.24%     -   41s
     0     0 -8226762.7    0  961 -8126094.4 -8226762.7  1.24%     -   42s
H    0     0                    -8142152.775 -8226762.7  1.04%     -   44s
     0     0 -8226740.2    0  972 -8142152.8 -8226740.2  1.04%     -   44s
     0     0 -8226524.6    0  955 -8142152.8 -8226524.6  1.04%     -   46s
H    0     0                    -8142152.937 -8226524.6  1.04%     -   47s
     0     0 -8226497.9    0  957 -8142152.9 -8226497.9  1.04%     -   47s
     0     0 -8226413.9    0  965 -8142152.9 -8226413.9  1.03%     -   48s
H    0     0                    -8142644.926 -8226413.9  1.03%     -   51s
     0     0 -8226393.4    0  961 -8142644.9 -8226393.4  1.03%     -   51s
     0     0 -8226363.7    0  957 -8142644.9 -8226363.7  1.03%     -   52s
     0     0 -8226363.7    0  862 -8142644.9 -8226363.7  1.03%     -   55s
H    0     0                    -8148645.584 -8226363.7  0.95%     -   62s

Cutting planes:
  Gomory: 73
  Lift-and-project: 13
  Cover: 168
  Implied bound: 15
  MIR: 659
  Flow cover: 365
  RLT: 9
  Relax-and-lift: 59

Explored 1 nodes (63124 simplex iterations) in 62.06 seconds (55.11 work units)
Thread count was 16 (of 16 available processors)

Solution count 10: -8.14865e+06 -8.14264e+06 -8.14215e+06 ... -7.79591e+06

Optimal solution found (tolerance 1.00e-02)
Best objective -8.148645583699e+06, best bound -8.226363702510e+06, gap 0.9538%

